p cnf 243 648
1 2 3 0
1 -2 -3 0
-1 2 -3 0
-1 -2 3 0
4 5 -6 0
4 -5 6 0
-4 5 6 0
-4 -5 -6 0
7 8 9 0
7 -8 -9 0
-7 8 -9 0
-7 -8 9 0
10 11 -12 0
10 -11 12 0
-10 11 12 0
-10 -11 -12 0
13 14 -15 0
13 -14 15 0
-13 14 15 0
-13 -14 -15 0
16 17 -18 0
16 -17 18 0
-16 17 18 0
-16 -17 -18 0
19 20 21 0
19 -20 -21 0
-19 20 -21 0
-19 -20 21 0
22 23 -24 0
22 -23 24 0
-22 23 24 0
-22 -23 -24 0
25 26 27 0
25 -26 -27 0
-25 26 -27 0
-25 -26 27 0
28 29 30 0
28 -29 -30 0
-28 29 -30 0
-28 -29 30 0
31 32 33 0
31 -32 -33 0
-31 32 -33 0
-31 -32 33 0
16 34 -35 0
16 -34 35 0
-16 34 35 0
-16 -34 -35 0
36 37 38 0
36 -37 -38 0
-36 37 -38 0
-36 -37 38 0
39 40 41 0
39 -40 -41 0
-39 40 -41 0
-39 -40 41 0
42 43 -44 0
42 -43 44 0
-42 43 44 0
-42 -43 -44 0
45 46 -47 0
45 -46 47 0
-45 46 47 0
-45 -46 -47 0
48 49 -50 0
48 -49 50 0
-48 49 50 0
-48 -49 -50 0
42 51 -52 0
42 -51 52 0
-42 51 52 0
-42 -51 -52 0
53 54 55 0
53 -54 -55 0
-53 54 -55 0
-53 -54 55 0
56 57 -58 0
56 -57 58 0
-56 57 58 0
-56 -57 -58 0
17 59 -60 0
17 -59 60 0
-17 59 60 0
-17 -59 -60 0
61 62 -63 0
61 -62 63 0
-61 62 63 0
-61 -62 -63 0
64 65 -66 0
64 -65 66 0
-64 65 66 0
-64 -65 -66 0
64 67 -68 0
64 -67 68 0
-64 67 68 0
-64 -67 -68 0
61 69 -70 0
61 -69 70 0
-61 69 70 0
-61 -69 -70 0
71 72 -73 0
71 -72 73 0
-71 72 73 0
-71 -72 -73 0
53 74 -75 0
53 -74 75 0
-53 74 75 0
-53 -74 -75 0
54 76 -77 0
54 -76 77 0
-54 76 77 0
-54 -76 -77 0
78 79 80 0
78 -79 -80 0
-78 79 -80 0
-78 -79 80 0
48 81 -82 0
48 -81 82 0
-48 81 82 0
-48 -81 -82 0
83 84 -85 0
83 -84 85 0
-83 84 85 0
-83 -84 -85 0
18 59 86 0
18 -59 -86 0
-18 59 -86 0
-18 -59 86 0
87 88 -89 0
87 -88 89 0
-87 88 89 0
-87 -88 -89 0
90 91 92 0
90 -91 -92 0
-90 91 -92 0
-90 -91 92 0
1 74 -93 0
1 -74 93 0
-1 74 93 0
-1 -74 -93 0
94 95 -96 0
94 -95 96 0
-94 95 96 0
-94 -95 -96 0
97 98 99 0
97 -98 -99 0
-97 98 -99 0
-97 -98 99 0
100 101 -102 0
100 -101 102 0
-100 101 102 0
-100 -101 -102 0
103 104 -105 0
103 -104 105 0
-103 104 105 0
-103 -104 -105 0
106 107 108 0
106 -107 -108 0
-106 107 -108 0
-106 -107 108 0
94 109 110 0
94 -109 -110 0
-94 109 -110 0
-94 -109 110 0
39 111 112 0
39 -111 -112 0
-39 111 -112 0
-39 -111 112 0
111 113 -114 0
111 -113 114 0
-111 113 114 0
-111 -113 -114 0
115 116 117 0
115 -116 -117 0
-115 116 -117 0
-115 -116 117 0
31 118 -119 0
31 -118 119 0
-31 118 119 0
-31 -118 -119 0
65 115 -120 0
65 -115 120 0
-65 115 120 0
-65 -115 -120 0
7 67 121 0
7 -67 -121 0
-7 67 -121 0
-7 -67 121 0
32 122 123 0
32 -122 -123 0
-32 122 -123 0
-32 -122 123 0
10 97 -124 0
10 -97 124 0
-10 97 124 0
-10 -97 -124 0
4 125 -126 0
4 -125 126 0
-4 125 126 0
-4 -125 -126 0
127 128 -129 0
127 -128 129 0
-127 128 129 0
-127 -128 -129 0
100 130 -131 0
100 -130 131 0
-100 130 131 0
-100 -130 -131 0
118 132 133 0
118 -132 -133 0
-118 132 -133 0
-118 -132 133 0
71 122 134 0
71 -122 -134 0
-71 122 -134 0
-71 -122 134 0
25 135 136 0
25 -135 -136 0
-25 135 -136 0
-25 -135 136 0
5 137 -138 0
5 -137 138 0
-5 137 138 0
-5 -137 -138 0
87 139 -140 0
87 -139 140 0
-87 139 140 0
-87 -139 -140 0
62 141 142 0
62 -141 -142 0
-62 141 -142 0
-62 -141 142 0
69 125 143 0
69 -125 -143 0
-69 125 -143 0
-69 -125 143 0
19 144 145 0
19 -144 -145 0
-19 144 -145 0
-19 -144 145 0
76 146 147 0
76 -146 -147 0
-76 146 -147 0
-76 -146 147 0
83 101 -148 0
83 -101 148 0
-83 101 148 0
-83 -101 -148 0
149 150 -151 0
149 -150 151 0
-149 150 151 0
-149 -150 -151 0
141 144 -152 0
141 -144 152 0
-141 144 152 0
-141 -144 -152 0
153 154 155 0
153 -154 -155 0
-153 154 -155 0
-153 -154 155 0
146 153 -156 0
146 -153 156 0
-146 153 156 0
-146 -153 -156 0
98 157 158 0
98 -157 -158 0
-98 157 -158 0
-98 -157 158 0
126 159 -160 0
126 -159 160 0
-126 159 160 0
-126 -159 -160 0
78 90 -161 0
78 -90 161 0
-78 90 161 0
-78 -90 -161 0
33 162 163 0
33 -162 -163 0
-33 162 -163 0
-33 -162 163 0
40 164 165 0
40 -164 -165 0
-40 164 -165 0
-40 -164 165 0
166 167 168 0
166 -167 -168 0
-166 167 -168 0
-166 -167 168 0
169 170 -171 0
169 -170 171 0
-169 170 171 0
-169 -170 -171 0
72 116 172 0
72 -116 -172 0
-72 116 -172 0
-72 -116 172 0
51 173 174 0
51 -173 -174 0
-51 173 -174 0
-51 -173 174 0
175 176 177 0
175 -176 -177 0
-175 176 -177 0
-175 -176 177 0
106 178 -179 0
106 -178 179 0
-106 178 179 0
-106 -178 -179 0
127 143 -180 0
127 -143 180 0
-127 143 180 0
-127 -143 -180 0
175 181 -182 0
175 -181 182 0
-175 181 182 0
-175 -181 -182 0
73 79 -183 0
73 -79 183 0
-73 79 183 0
-73 -79 -183 0
172 184 -185 0
172 -184 185 0
-172 184 185 0
-172 -184 -185 0
49 186 187 0
49 -186 -187 0
-49 186 -187 0
-49 -186 187 0
45 156 -188 0
45 -156 188 0
-45 156 188 0
-45 -156 -188 0
2 189 190 0
2 -189 -190 0
-2 189 -190 0
-2 -189 190 0
162 176 191 0
162 -176 -191 0
-162 176 -191 0
-162 -176 191 0
11 192 193 0
11 -192 -193 0
-11 192 -193 0
-11 -192 193 0
130 166 194 0
130 -166 -194 0
-130 166 -194 0
-130 -166 194 0
6 56 195 0
6 -56 -195 0
-6 56 -195 0
-6 -56 195 0
22 28 196 0
22 -28 -196 0
-22 28 -196 0
-22 -28 196 0
152 154 197 0
152 -154 -197 0
-152 154 -197 0
-152 -154 197 0
135 198 199 0
135 -198 -199 0
-135 198 -199 0
-135 -198 199 0
13 200 201 0
13 -200 -201 0
-13 200 -201 0
-13 -200 201 0
60 120 -195 0
60 -120 195 0
-60 120 195 0
-60 -120 -195 0
8 86 -136 0
8 -86 136 0
-8 86 136 0
-8 -86 -136 0
68 202 -203 0
68 -202 203 0
-68 202 203 0
-68 -202 -203 0
75 164 -181 0
75 -164 181 0
-75 164 181 0
-75 -164 -181 0
26 128 -204 0
26 -128 204 0
-26 128 204 0
-26 -128 -204 0
117 157 -205 0
117 -157 205 0
-117 157 205 0
-117 -157 -205 0
169 206 207 0
169 -206 -207 0
-169 206 -207 0
-169 -206 207 0
81 112 208 0
81 -112 -208 0
-81 112 -208 0
-81 -112 208 0
29 145 -209 0
29 -145 209 0
-29 145 209 0
-29 -145 -209 0
124 167 210 0
124 -167 -210 0
-124 167 -210 0
-124 -167 210 0
93 211 -212 0
93 -211 212 0
-93 211 212 0
-93 -211 -212 0
27 183 184 0
27 -183 -184 0
-27 183 -184 0
-27 -183 184 0
20 34 213 0
20 -34 -213 0
-20 34 -213 0
-20 -34 213 0
121 214 -215 0
121 -214 215 0
-121 214 215 0
-121 -214 -215 0
63 168 -216 0
63 -168 216 0
-63 168 216 0
-63 -168 -216 0
198 217 -218 0
198 -217 218 0
-198 217 218 0
-198 -217 -218 0
113 192 219 0
113 -192 -219 0
-113 192 -219 0
-113 -192 219 0
200 220 -221 0
200 -220 221 0
-200 220 221 0
-200 -220 -221 0
77 88 -170 0
77 -88 170 0
-77 88 170 0
-77 -88 -170 0
46 99 -107 0
46 -99 107 0
-46 99 107 0
-46 -99 -107 0
119 180 -222 0
119 -180 222 0
-119 180 222 0
-119 -180 -222 0
199 223 -224 0
199 -223 224 0
-199 223 224 0
-199 -223 -224 0
84 217 -225 0
84 -217 225 0
-84 217 225 0
-84 -217 -225 0
204 226 -227 0
204 -226 227 0
-204 226 227 0
-204 -226 -227 0
210 223 226 0
210 -223 -226 0
-210 223 -226 0
-210 -223 226 0
173 201 -202 0
173 -201 202 0
-173 201 202 0
-173 -201 -202 0
137 149 228 0
137 -149 -228 0
-137 149 -228 0
-137 -149 228 0
150 222 -229 0
150 -222 229 0
-150 222 229 0
-150 -222 -229 0
80 139 -203 0
80 -139 203 0
-80 139 203 0
-80 -139 -203 0
55 171 -230 0
55 -171 230 0
-55 171 230 0
-55 -171 -230 0
43 225 -231 0
43 -225 231 0
-43 225 231 0
-43 -225 -231 0
132 193 214 0
132 -193 -214 0
-132 193 -214 0
-132 -193 214 0
159 215 232 0
159 -215 -232 0
-159 215 -232 0
-159 -215 232 0
57 103 -232 0
57 -103 232 0
-57 103 232 0
-57 -103 -232 0
85 147 -233 0
85 -147 233 0
-85 147 233 0
-85 -147 -233 0
140 206 228 0
140 -206 -228 0
-140 206 -228 0
-140 -206 228 0
189 234 235 0
189 -234 -235 0
-189 234 -235 0
-189 -234 235 0
36 161 -236 0
36 -161 236 0
-36 161 236 0
-36 -161 -236 0
89 134 191 0
89 -134 -191 0
-89 134 -191 0
-89 -134 191 0
82 108 208 0
82 -108 -208 0
-82 108 -208 0
-82 -108 208 0
186 207 -237 0
186 -207 237 0
-186 207 237 0
-186 -207 -237 0
219 238 -239 0
219 -238 239 0
-219 238 239 0
-219 -238 -239 0
109 197 211 0
109 -197 -211 0
-109 197 -211 0
-109 -197 211 0
9 21 155 0
9 -21 -155 0
-9 21 -155 0
-9 -21 155 0
174 190 234 0
174 -190 -234 0
-174 190 -234 0
-174 -190 234 0
158 163 188 0
158 -163 -188 0
-158 163 -188 0
-158 -163 188 0
52 95 237 0
52 -95 -237 0
-52 95 -237 0
-52 -95 237 0
165 220 233 0
165 -220 -233 0
-165 220 -233 0
-165 -220 233 0
23 151 -240 0
23 -151 240 0
-23 151 240 0
-23 -151 -240 0
35 91 -241 0
35 -91 241 0
-35 91 241 0
-35 -91 -241 0
3 138 -177 0
3 -138 177 0
-3 138 177 0
-3 -138 -177 0
102 160 -205 0
102 -160 205 0
-102 160 205 0
-102 -160 -205 0
96 114 131 0
96 -114 -131 0
-96 114 -131 0
-96 -114 131 0
66 70 -92 0
66 -70 92 0
-66 70 92 0
-66 -70 -92 0
110 185 -221 0
110 -185 221 0
-110 185 221 0
-110 -185 -221 0
44 196 -241 0
44 -196 241 0
-44 196 241 0
-44 -196 -241 0
12 218 229 0
12 -218 -229 0
-12 218 -229 0
-12 -218 229 0
129 148 -230 0
129 -148 230 0
-129 148 230 0
-129 -148 -230 0
213 238 -242 0
213 -238 242 0
-213 238 242 0
-213 -238 -242 0
47 142 212 0
47 -142 -212 0
-47 142 -212 0
-47 -142 212 0
194 236 -243 0
194 -236 243 0
-194 236 243 0
-194 -236 -243 0
50 104 -216 0
50 -104 216 0
-50 104 216 0
-50 -104 -216 0
41 182 -227 0
41 -182 227 0
-41 182 227 0
-41 -182 -227 0
178 209 -231 0
178 -209 231 0
-178 209 231 0
-178 -209 -231 0
105 240 243 0
105 -240 -243 0
-105 240 -243 0
-105 -240 243 0
14 123 -187 0
14 -123 187 0
-14 123 187 0
-14 -123 -187 0
37 58 -224 0
37 -58 224 0
-37 58 224 0
-37 -58 -224 0
24 30 242 0
24 -30 -242 0
-24 30 -242 0
-24 -30 242 0
133 235 -239 0
133 -235 239 0
-133 235 239 0
-133 -235 -239 0
15 38 -179 0
15 -38 179 0
-15 38 179 0
-15 -38 -179 0
